1423
27 58 95 51 78 17 41 34 98 81 87 75 35 26 89 94 48 93 85 79 36 9 54 71 49 25 22 24 90 10 59 5 53 28 8 65 64 6 7 62 19 57 14 84 30 61 23 33 16 96 82 80 15 67 40 70 44 4 99 18 50 72 20 47 1 12 52 83 42 38 45 37 74 91 92 46 56 69 77 76 63 97 21 2 60 73 55 86 31 13 68 32 88 3 39 29 43 11 66 
